\ENCODING=ISO-8859-1
\Problem name: IloCplex

Minimize
 obj1: [ 45002 z_4_5 ^2 - 225000 z_4_5 * z_4_4 + 150000 z_4_5 * z_4_3
       - 15000 z_4_5 * z_4_0 + 300000 z_4_4 ^2 - 450000 z_4_4 * z_4_3
       + 75000 z_4_4 * z_4_1 + 225000 z_4_3 ^2 - 150000 z_4_3 * z_4_2
       + 45000 z_4_0 ^2 - 225000 z_4_0 * z_4_1 + 150000 z_4_0 * z_4_2
       + 300000 z_4_1 ^2 - 450000 z_4_1 * z_4_2 + 225000 z_4_2 ^2
       + 45002 z_3_5 ^2 - 225000 z_3_5 * z_3_4 + 150000 z_3_5 * z_3_3
       - 15000 z_3_5 * z_3_0 + 300000 z_3_4 ^2 - 450000 z_3_4 * z_3_3
       + 75000 z_3_4 * z_3_1 + 225000 z_3_3 ^2 - 150000 z_3_3 * z_3_2
       + 45000 z_3_0 ^2 - 225000 z_3_0 * z_3_1 + 150000 z_3_0 * z_3_2
       + 300000 z_3_1 ^2 - 450000 z_3_1 * z_3_2 + 225000 z_3_2 ^2
       + 45002 z_2_5 ^2 - 225000 z_2_5 * z_2_4 + 150000 z_2_5 * z_2_3
       - 15000 z_2_5 * z_2_0 + 300000 z_2_4 ^2 - 450000 z_2_4 * z_2_3
       + 75000 z_2_4 * z_2_1 + 225000 z_2_3 ^2 - 150000 z_2_3 * z_2_2
       + 45000 z_2_0 ^2 - 225000 z_2_0 * z_2_1 + 150000 z_2_0 * z_2_2
       + 300000 z_2_1 ^2 - 450000 z_2_1 * z_2_2 + 225000 z_2_2 ^2
       + 45002 z_1_5 ^2 - 225000 z_1_5 * z_1_4 + 150000 z_1_5 * z_1_3
       - 15000 z_1_5 * z_1_0 + 300000 z_1_4 ^2 - 450000 z_1_4 * z_1_3
       + 75000 z_1_4 * z_1_1 + 225000 z_1_3 ^2 - 150000 z_1_3 * z_1_2
       + 45000 z_1_0 ^2 - 225000 z_1_0 * z_1_1 + 150000 z_1_0 * z_1_2
       + 300000 z_1_1 ^2 - 450000 z_1_1 * z_1_2 + 225000 z_1_2 ^2
       + 45002 z_0_5 ^2 - 225000 z_0_5 * z_0_4 + 150000 z_0_5 * z_0_3
       - 15000 z_0_5 * z_0_0 + 300000 z_0_4 ^2 - 450000 z_0_4 * z_0_3
       + 75000 z_0_4 * z_0_1 + 225000 z_0_3 ^2 - 150000 z_0_3 * z_0_2
       + 45000 z_0_0 ^2 - 225000 z_0_0 * z_0_1 + 150000 z_0_0 * z_0_2
       + 300000 z_0_1 ^2 - 450000 z_0_1 * z_0_2 + 225000 z_0_2 ^2
       + 45002 y_4_5 ^2 - 225000 y_4_5 * y_4_4 + 150000 y_4_5 * y_4_3
       - 15000 y_4_5 * y_4_0 + 300000 y_4_4 ^2 - 450000 y_4_4 * y_4_3
       + 75000 y_4_4 * y_4_1 + 225000 y_4_3 ^2 - 150000 y_4_3 * y_4_2
       + 45000 y_4_0 ^2 - 225000 y_4_0 * y_4_1 + 150000 y_4_0 * y_4_2
       + 300000 y_4_1 ^2 - 450000 y_4_1 * y_4_2 + 225000 y_4_2 ^2
       + 45002 y_3_5 ^2 - 225000 y_3_5 * y_3_4 + 150000 y_3_5 * y_3_3
       - 15000 y_3_5 * y_3_0 + 300000 y_3_4 ^2 - 450000 y_3_4 * y_3_3
       + 75000 y_3_4 * y_3_1 + 225000 y_3_3 ^2 - 150000 y_3_3 * y_3_2
       + 45000 y_3_0 ^2 - 225000 y_3_0 * y_3_1 + 150000 y_3_0 * y_3_2
       + 300000 y_3_1 ^2 - 450000 y_3_1 * y_3_2 + 225000 y_3_2 ^2
       + 45002 y_2_5 ^2 - 225000 y_2_5 * y_2_4 + 150000 y_2_5 * y_2_3
       - 15000 y_2_5 * y_2_0 + 300000 y_2_4 ^2 - 450000 y_2_4 * y_2_3
       + 75000 y_2_4 * y_2_1 + 225000 y_2_3 ^2 - 150000 y_2_3 * y_2_2
       + 45000 y_2_0 ^2 - 225000 y_2_0 * y_2_1 + 150000 y_2_0 * y_2_2
       + 300000 y_2_1 ^2 - 450000 y_2_1 * y_2_2 + 225000 y_2_2 ^2
       + 45002 y_1_5 ^2 - 225000 y_1_5 * y_1_4 + 150000 y_1_5 * y_1_3
       - 15000 y_1_5 * y_1_0 + 300000 y_1_4 ^2 - 450000 y_1_4 * y_1_3
       + 75000 y_1_4 * y_1_1 + 225000 y_1_3 ^2 - 150000 y_1_3 * y_1_2
       + 45000 y_1_0 ^2 - 225000 y_1_0 * y_1_1 + 150000 y_1_0 * y_1_2
       + 300000 y_1_1 ^2 - 450000 y_1_1 * y_1_2 + 225000 y_1_2 ^2
       + 45002 y_0_5 ^2 - 225000 y_0_5 * y_0_4 + 150000 y_0_5 * y_0_3
       - 15000 y_0_5 * y_0_0 + 300000 y_0_4 ^2 - 450000 y_0_4 * y_0_3
       + 75000 y_0_4 * y_0_1 + 225000 y_0_3 ^2 - 150000 y_0_3 * y_0_2
       + 45000 y_0_0 ^2 - 225000 y_0_0 * y_0_1 + 150000 y_0_0 * y_0_2
       + 300000 y_0_1 ^2 - 450000 y_0_1 * y_0_2 + 225000 y_0_2 ^2
       + 45002 x_4_5 ^2 - 225000 x_4_5 * x_4_4 + 150000 x_4_5 * x_4_3
       - 15000 x_4_5 * x_4_0 + 300000 x_4_4 ^2 - 450000 x_4_4 * x_4_3
       + 75000 x_4_4 * x_4_1 + 225000 x_4_3 ^2 - 150000 x_4_3 * x_4_2
       + 45000 x_4_0 ^2 - 225000 x_4_0 * x_4_1 + 150000 x_4_0 * x_4_2
       + 300000 x_4_1 ^2 - 450000 x_4_1 * x_4_2 + 225000 x_4_2 ^2
       + 45002 x_3_5 ^2 - 225000 x_3_5 * x_3_4 + 150000 x_3_5 * x_3_3
       - 15000 x_3_5 * x_3_0 + 300000 x_3_4 ^2 - 450000 x_3_4 * x_3_3
       + 75000 x_3_4 * x_3_1 + 225000 x_3_3 ^2 - 150000 x_3_3 * x_3_2
       + 45000 x_3_0 ^2 - 225000 x_3_0 * x_3_1 + 150000 x_3_0 * x_3_2
       + 300000 x_3_1 ^2 - 450000 x_3_1 * x_3_2 + 225000 x_3_2 ^2
       + 45002 x_2_5 ^2 - 225000 x_2_5 * x_2_4 + 150000 x_2_5 * x_2_3
       - 15000 x_2_5 * x_2_0 + 300000 x_2_4 ^2 - 450000 x_2_4 * x_2_3
       + 75000 x_2_4 * x_2_1 + 225000 x_2_3 ^2 - 150000 x_2_3 * x_2_2
       + 45000 x_2_0 ^2 - 225000 x_2_0 * x_2_1 + 150000 x_2_0 * x_2_2
       + 300000 x_2_1 ^2 - 450000 x_2_1 * x_2_2 + 225000 x_2_2 ^2
       + 45002 x_1_5 ^2 - 225000 x_1_5 * x_1_4 + 150000 x_1_5 * x_1_3
       - 15000 x_1_5 * x_1_0 + 300000 x_1_4 ^2 - 450000 x_1_4 * x_1_3
       + 75000 x_1_4 * x_1_1 + 225000 x_1_3 ^2 - 150000 x_1_3 * x_1_2
       + 45000 x_1_0 ^2 - 225000 x_1_0 * x_1_1 + 150000 x_1_0 * x_1_2
       + 300000 x_1_1 ^2 - 450000 x_1_1 * x_1_2 + 225000 x_1_2 ^2
       + 45002 x_0_5 ^2 - 225000 x_0_5 * x_0_4 + 150000 x_0_5 * x_0_3
       - 15000 x_0_5 * x_0_0 + 300000 x_0_4 ^2 - 450000 x_0_4 * x_0_3
       + 75000 x_0_4 * x_0_1 + 225000 x_0_3 ^2 - 150000 x_0_3 * x_0_2
       + 45000 x_0_0 ^2 - 225000 x_0_0 * x_0_1 + 150000 x_0_0 * x_0_2
       + 300000 x_0_1 ^2 - 450000 x_0_1 * x_0_2 + 225000 x_0_2 ^2 ] / 2
Subject To
 c1:   x_0_0  = 0
 c2:   - 25 x_0_0 + 25 x_0_1  = 0
 c3:   500 x_0_0 - 1000 x_0_1 + 500 x_0_2  = 0
 c4:   - x_1_0 + x_0_5  = 0
 c5:   25 x_1_0 - 25 x_1_1 + 25 x_0_5 - 25 x_0_4  = 0
 c6:   - 500 x_1_0 + 1000 x_1_1 - 500 x_1_2 + 500 x_0_5 - 1000 x_0_4
       + 500 x_0_3  = 0
 c7:   - x_2_0 + x_1_5  = 0
 c8:   25 x_2_0 - 25 x_2_1 + 25 x_1_5 - 25 x_1_4  = 0
 c9:   - 500 x_2_0 + 1000 x_2_1 - 500 x_2_2 + 500 x_1_5 - 1000 x_1_4
       + 500 x_1_3  = 0
 c10:  - x_3_0 + x_2_5  = 0
 c11:  25 x_3_0 - 25 x_3_1 + 25 x_2_5 - 25 x_2_4  = 0
 c12:  - 500 x_3_0 + 1000 x_3_1 - 500 x_3_2 + 500 x_2_5 - 1000 x_2_4
       + 500 x_2_3  = 0
 c13:  - x_4_0 + x_3_5  = 0
 c14:  25 x_4_0 - 25 x_4_1 + 25 x_3_5 - 25 x_3_4  = 0
 c15:  - 500 x_4_0 + 1000 x_4_1 - 500 x_4_2 + 500 x_3_5 - 1000 x_3_4
       + 500 x_3_3  = 0
 c16:  y_0_0  = 0
 c17:  - 25 y_0_0 + 25 y_0_1  = 0
 c18:  500 y_0_0 - 1000 y_0_1 + 500 y_0_2  = 0
 c19:  - y_1_0 + y_0_5  = 0
 c20:  25 y_1_0 - 25 y_1_1 + 25 y_0_5 - 25 y_0_4  = 0
 c21:  - 500 y_1_0 + 1000 y_1_1 - 500 y_1_2 + 500 y_0_5 - 1000 y_0_4
       + 500 y_0_3  = 0
 c22:  - y_2_0 + y_1_5  = 0
 c23:  25 y_2_0 - 25 y_2_1 + 25 y_1_5 - 25 y_1_4  = 0
 c24:  - 500 y_2_0 + 1000 y_2_1 - 500 y_2_2 + 500 y_1_5 - 1000 y_1_4
       + 500 y_1_3  = 0
 c25:  - y_3_0 + y_2_5  = 0
 c26:  25 y_3_0 - 25 y_3_1 + 25 y_2_5 - 25 y_2_4  = 0
 c27:  - 500 y_3_0 + 1000 y_3_1 - 500 y_3_2 + 500 y_2_5 - 1000 y_2_4
       + 500 y_2_3  = 0
 c28:  - y_4_0 + y_3_5  = 0
 c29:  25 y_4_0 - 25 y_4_1 + 25 y_3_5 - 25 y_3_4  = 0
 c30:  - 500 y_4_0 + 1000 y_4_1 - 500 y_4_2 + 500 y_3_5 - 1000 y_3_4
       + 500 y_3_3  = 0
 c31:  z_0_0  = 0
 c32:  - 25 z_0_0 + 25 z_0_1  = 0
 c33:  500 z_0_0 - 1000 z_0_1 + 500 z_0_2  = 0
 c34:  - z_1_0 + z_0_5  = 0
 c35:  25 z_1_0 - 25 z_1_1 + 25 z_0_5 - 25 z_0_4  = 0
 c36:  - 500 z_1_0 + 1000 z_1_1 - 500 z_1_2 + 500 z_0_5 - 1000 z_0_4
       + 500 z_0_3  = 0
 c37:  - z_2_0 + z_1_5  = 0
 c38:  25 z_2_0 - 25 z_2_1 + 25 z_1_5 - 25 z_1_4  = 0
 c39:  - 500 z_2_0 + 1000 z_2_1 - 500 z_2_2 + 500 z_1_5 - 1000 z_1_4
       + 500 z_1_3  = 0
 c40:  - z_3_0 + z_2_5  = 0
 c41:  25 z_3_0 - 25 z_3_1 + 25 z_2_5 - 25 z_2_4  = 0
 c42:  - 500 z_3_0 + 1000 z_3_1 - 500 z_3_2 + 500 z_2_5 - 1000 z_2_4
       + 500 z_2_3  = 0
 c43:  - z_4_0 + z_3_5  = 0
 c44:  25 z_4_0 - 25 z_4_1 + 25 z_3_5 - 25 z_3_4  = 0
 c45:  - 500 z_4_0 + 1000 z_4_1 - 500 z_4_2 + 500 z_3_5 - 1000 z_3_4
       + 500 z_3_3  = 0
 c46:  x_0_3 >= 0
 c47:  x_0_4 >= 0
 c48:  x_0_5 >= 0
 c49:  - x_0_3 >= 0
 c50:  - x_0_4 >= 0
 c51:  - x_0_5 >= 0
 c52:  y_0_3 >= 0
 c53:  y_0_4 >= 0
 c54:  y_0_5 >= 0
 c55:  - y_0_3 >= 0
 c56:  - y_0_4 >= 0
 c57:  - y_0_5 >= 0
 c58:  z_0_3 >= 0
 c59:  z_0_4 >= 0
 c60:  z_0_5 >= 0
 c61:  - z_0_3 >= 0
 c62:  - z_0_4 >= 0
 c63:  - z_0_5 >= 0
 c64:  x_1_0 >= 0
 c65:  x_1_1 >= 0
 c66:  x_1_2 >= 0
 c67:  x_1_3 >= 0
 c68:  x_1_4 >= 0
 c69:  x_1_5 >= 0
 c70:  - x_1_0 >= 0
 c71:  - x_1_1 >= 0
 c72:  - x_1_2 >= 0
 c73:  - x_1_3 >= 0
 c74:  - x_1_4 >= 0
 c75:  - x_1_5 >= 0
 c76:  y_1_0 >= 0
 c77:  y_1_1 >= 0
 c78:  y_1_2 >= 0
 c79:  y_1_3 >= 0
 c80:  y_1_4 >= 0
 c81:  y_1_5 >= 0
 c82:  - y_1_0 >= 0
 c83:  - y_1_1 >= 0
 c84:  - y_1_2 >= 0
 c85:  - y_1_3 >= 0
 c86:  - y_1_4 >= 0
 c87:  - y_1_5 >= 0
 c88:  z_1_0 >= 0
 c89:  z_1_1 >= 0
 c90:  z_1_2 >= 0
 c91:  z_1_3 >= 0
 c92:  z_1_4 >= 0
 c93:  z_1_5 >= 0
 c94:  - z_1_0 >= 0
 c95:  - z_1_1 >= 0
 c96:  - z_1_2 >= 0
 c97:  - z_1_3 >= 0
 c98:  - z_1_4 >= 0
 c99:  - z_1_5 >= 0
 c100: x_2_0 >= 0
 c101: x_2_1 >= 0
 c102: x_2_2 >= 0
 c103: x_2_3 >= 0
 c104: x_2_4 >= 0
 c105: x_2_5 >= 0
 c106: - x_2_0 >= 0
 c107: - x_2_1 >= 0
 c108: - x_2_2 >= 0
 c109: - x_2_3 >= 0
 c110: - x_2_4 >= 0
 c111: - x_2_5 >= 0
 c112: y_2_0 >= 0
 c113: y_2_1 >= 0
 c114: y_2_2 >= 0
 c115: y_2_3 >= 0
 c116: y_2_4 >= 0
 c117: y_2_5 >= 0
 c118: - y_2_0 >= 0
 c119: - y_2_1 >= 0
 c120: - y_2_2 >= 0
 c121: - y_2_3 >= 0
 c122: - y_2_4 >= 0
 c123: - y_2_5 >= 0
 c124: z_2_0 >= 0
 c125: z_2_1 >= 0
 c126: z_2_2 >= 0
 c127: z_2_3 >= 0
 c128: z_2_4 >= 0
 c129: z_2_5 >= 0
 c130: - z_2_0 >= 0
 c131: - z_2_1 >= 0
 c132: - z_2_2 >= 0
 c133: - z_2_3 >= 0
 c134: - z_2_4 >= 0
 c135: - z_2_5 >= 0
 c136: x_3_0 >= 0
 c137: x_3_1 >= 0
 c138: x_3_2 >= 0
 c139: x_3_3 >= 0
 c140: x_3_4 >= 0
 c141: x_3_5 >= 0
 c142: - x_3_0 >= 0
 c143: - x_3_1 >= 0
 c144: - x_3_2 >= 0
 c145: - x_3_3 >= 0
 c146: - x_3_4 >= 0
 c147: - x_3_5 >= 0
 c148: y_3_0 >= 0
 c149: y_3_1 >= 0
 c150: y_3_2 >= 0
 c151: y_3_3 >= 0
 c152: y_3_4 >= 0
 c153: y_3_5 >= 0
 c154: - y_3_0 >= 0
 c155: - y_3_1 >= 0
 c156: - y_3_2 >= 0
 c157: - y_3_3 >= 0
 c158: - y_3_4 >= 0
 c159: - y_3_5 >= 0
 c160: z_3_0 >= 0
 c161: z_3_1 >= 0
 c162: z_3_2 >= 0
 c163: z_3_3 >= 0
 c164: z_3_4 >= 0
 c165: z_3_5 >= 0
 c166: - z_3_0 >= 0
 c167: - z_3_1 >= 0
 c168: - z_3_2 >= 0
 c169: - z_3_3 >= 0
 c170: - z_3_4 >= 0
 c171: - z_3_5 >= 0
 c172: x_4_0 >= 0
 c173: x_4_1 >= 0
 c174: x_4_2 >= 0
 c175: x_4_3 >= 0
 c176: x_4_4 >= 0
 c177: x_4_5 >= 0
 c178: - x_4_0 >= 0
 c179: - x_4_1 >= 0
 c180: - x_4_2 >= 0
 c181: - x_4_3 >= 0
 c182: - x_4_4 >= 0
 c183: - x_4_5 >= 0
 c184: y_4_0 >= 0
 c185: y_4_1 >= 0
 c186: y_4_2 >= 0
 c187: y_4_3 >= 0
 c188: y_4_4 >= 0
 c189: y_4_5 >= 0
 c190: - y_4_0 >= 0
 c191: - y_4_1 >= 0
 c192: - y_4_2 >= 0
 c193: - y_4_3 >= 0
 c194: - y_4_4 >= 0
 c195: - y_4_5 >= 0
 c196: z_4_0 >= 0
 c197: z_4_1 >= 0
 c198: z_4_2 >= 0
 c199: z_4_3 >= 0
 c200: z_4_4 >= 0
 c201: z_4_5 >= 0
 c202: - z_4_0 >= 0
 c203: - z_4_1 >= 0
 c204: - z_4_2 >= 0
 c205: - z_4_3 >= 0
 c206: - z_4_4 >= 0
 c207: - z_4_5 >= 0
 c208: 25 x_0_3 - 25 x_0_2 <= 0.866025403784439
 c209: - 25 x_0_3 + 25 x_0_2 <= 0.866025403784439
 c210: 25 x_0_4 - 25 x_0_3 <= 0.866025403784439
 c211: - 25 x_0_4 + 25 x_0_3 <= 0.866025403784439
 c212: 25 x_0_5 - 25 x_0_4 <= 0.866025403784439
 c213: - 25 x_0_5 + 25 x_0_4 <= 0.866025403784439
 c214: 500 x_0_3 + 500 x_0_1 - 1000 x_0_2 <= 3.85286827444977
 c215: - 500 x_0_3 - 500 x_0_1 + 1000 x_0_2 <= 3.85286827444977
 c216: 500 x_0_4 - 1000 x_0_3 + 500 x_0_2 <= 3.85286827444977
 c217: - 500 x_0_4 + 1000 x_0_3 - 500 x_0_2 <= 3.85286827444977
 c218: 500 x_0_5 - 1000 x_0_4 + 500 x_0_3 <= 3.85286827444977
 c219: - 500 x_0_5 + 1000 x_0_4 - 500 x_0_3 <= 3.85286827444977
 c220: - 25 x_1_0 + 25 x_1_1 <= 0.866025403784439
 c221: 25 x_1_0 - 25 x_1_1 <= 0.866025403784439
 c222: - 25 x_1_1 + 25 x_1_2 <= 0.866025403784439
 c223: 25 x_1_1 - 25 x_1_2 <= 0.866025403784439
 c224: 25 x_1_3 - 25 x_1_2 <= 0.866025403784439
 c225: - 25 x_1_3 + 25 x_1_2 <= 0.866025403784439
 c226: 25 x_1_4 - 25 x_1_3 <= 0.866025403784439
 c227: - 25 x_1_4 + 25 x_1_3 <= 0.866025403784439
 c228: 25 x_1_5 - 25 x_1_4 <= 0.866025403784439
 c229: - 25 x_1_5 + 25 x_1_4 <= 0.866025403784439
 c230: 500 x_1_0 - 1000 x_1_1 + 500 x_1_2 <= 3.85286827444977
 c231: - 500 x_1_0 + 1000 x_1_1 - 500 x_1_2 <= 3.85286827444977
 c232: 500 x_1_3 + 500 x_1_1 - 1000 x_1_2 <= 3.85286827444977
 c233: - 500 x_1_3 - 500 x_1_1 + 1000 x_1_2 <= 3.85286827444977
 c234: 500 x_1_4 - 1000 x_1_3 + 500 x_1_2 <= 3.85286827444977
 c235: - 500 x_1_4 + 1000 x_1_3 - 500 x_1_2 <= 3.85286827444977
 c236: 500 x_1_5 - 1000 x_1_4 + 500 x_1_3 <= 3.85286827444977
 c237: - 500 x_1_5 + 1000 x_1_4 - 500 x_1_3 <= 3.85286827444977
 c238: - 25 x_2_0 + 25 x_2_1 <= 0.866025403784439
 c239: 25 x_2_0 - 25 x_2_1 <= 0.866025403784439
 c240: - 25 x_2_1 + 25 x_2_2 <= 0.866025403784439
 c241: 25 x_2_1 - 25 x_2_2 <= 0.866025403784439
 c242: 25 x_2_3 - 25 x_2_2 <= 0.866025403784439
 c243: - 25 x_2_3 + 25 x_2_2 <= 0.866025403784439
 c244: 25 x_2_4 - 25 x_2_3 <= 0.866025403784439
 c245: - 25 x_2_4 + 25 x_2_3 <= 0.866025403784439
 c246: 25 x_2_5 - 25 x_2_4 <= 0.866025403784439
 c247: - 25 x_2_5 + 25 x_2_4 <= 0.866025403784439
 c248: 500 x_2_0 - 1000 x_2_1 + 500 x_2_2 <= 3.85286827444977
 c249: - 500 x_2_0 + 1000 x_2_1 - 500 x_2_2 <= 3.85286827444977
 c250: 500 x_2_3 + 500 x_2_1 - 1000 x_2_2 <= 3.85286827444977
 c251: - 500 x_2_3 - 500 x_2_1 + 1000 x_2_2 <= 3.85286827444977
 c252: 500 x_2_4 - 1000 x_2_3 + 500 x_2_2 <= 3.85286827444977
 c253: - 500 x_2_4 + 1000 x_2_3 - 500 x_2_2 <= 3.85286827444977
 c254: 500 x_2_5 - 1000 x_2_4 + 500 x_2_3 <= 3.85286827444977
 c255: - 500 x_2_5 + 1000 x_2_4 - 500 x_2_3 <= 3.85286827444977
 c256: - 25 x_3_0 + 25 x_3_1 <= 0.866025403784439
 c257: 25 x_3_0 - 25 x_3_1 <= 0.866025403784439
 c258: - 25 x_3_1 + 25 x_3_2 <= 0.866025403784439
 c259: 25 x_3_1 - 25 x_3_2 <= 0.866025403784439
 c260: 25 x_3_3 - 25 x_3_2 <= 0.866025403784439
 c261: - 25 x_3_3 + 25 x_3_2 <= 0.866025403784439
 c262: 25 x_3_4 - 25 x_3_3 <= 0.866025403784439
 c263: - 25 x_3_4 + 25 x_3_3 <= 0.866025403784439
 c264: 25 x_3_5 - 25 x_3_4 <= 0.866025403784439
 c265: - 25 x_3_5 + 25 x_3_4 <= 0.866025403784439
 c266: 500 x_3_0 - 1000 x_3_1 + 500 x_3_2 <= 3.85286827444977
 c267: - 500 x_3_0 + 1000 x_3_1 - 500 x_3_2 <= 3.85286827444977
 c268: 500 x_3_3 + 500 x_3_1 - 1000 x_3_2 <= 3.85286827444977
 c269: - 500 x_3_3 - 500 x_3_1 + 1000 x_3_2 <= 3.85286827444977
 c270: 500 x_3_4 - 1000 x_3_3 + 500 x_3_2 <= 3.85286827444977
 c271: - 500 x_3_4 + 1000 x_3_3 - 500 x_3_2 <= 3.85286827444977
 c272: 500 x_3_5 - 1000 x_3_4 + 500 x_3_3 <= 3.85286827444977
 c273: - 500 x_3_5 + 1000 x_3_4 - 500 x_3_3 <= 3.85286827444977
 c274: - 25 x_4_0 + 25 x_4_1 <= 0.866025403784439
 c275: 25 x_4_0 - 25 x_4_1 <= 0.866025403784439
 c276: - 25 x_4_1 + 25 x_4_2 <= 0.866025403784439
 c277: 25 x_4_1 - 25 x_4_2 <= 0.866025403784439
 c278: 25 x_4_3 - 25 x_4_2 <= 0.866025403784439
 c279: - 25 x_4_3 + 25 x_4_2 <= 0.866025403784439
 c280: 25 x_4_4 - 25 x_4_3 <= 0.866025403784439
 c281: - 25 x_4_4 + 25 x_4_3 <= 0.866025403784439
 c282: 25 x_4_5 - 25 x_4_4 <= 0.866025403784439
 c283: - 25 x_4_5 + 25 x_4_4 <= 0.866025403784439
 c284: 500 x_4_0 - 1000 x_4_1 + 500 x_4_2 <= 3.85286827444977
 c285: - 500 x_4_0 + 1000 x_4_1 - 500 x_4_2 <= 3.85286827444977
 c286: 500 x_4_3 + 500 x_4_1 - 1000 x_4_2 <= 3.85286827444977
 c287: - 500 x_4_3 - 500 x_4_1 + 1000 x_4_2 <= 3.85286827444977
 c288: 500 x_4_4 - 1000 x_4_3 + 500 x_4_2 <= 3.85286827444977
 c289: - 500 x_4_4 + 1000 x_4_3 - 500 x_4_2 <= 3.85286827444977
 c290: 500 x_4_5 - 1000 x_4_4 + 500 x_4_3 <= 3.85286827444977
 c291: - 500 x_4_5 + 1000 x_4_4 - 500 x_4_3 <= 3.85286827444977
 c292: 25 y_0_3 - 25 y_0_2 <= 0.866025403784439
 c293: - 25 y_0_3 + 25 y_0_2 <= 0.866025403784439
 c294: 25 y_0_4 - 25 y_0_3 <= 0.866025403784439
 c295: - 25 y_0_4 + 25 y_0_3 <= 0.866025403784439
 c296: 25 y_0_5 - 25 y_0_4 <= 0.866025403784439
 c297: - 25 y_0_5 + 25 y_0_4 <= 0.866025403784439
 c298: 500 y_0_3 + 500 y_0_1 - 1000 y_0_2 <= 3.85286827444977
 c299: - 500 y_0_3 - 500 y_0_1 + 1000 y_0_2 <= 3.85286827444977
 c300: 500 y_0_4 - 1000 y_0_3 + 500 y_0_2 <= 3.85286827444977
 c301: - 500 y_0_4 + 1000 y_0_3 - 500 y_0_2 <= 3.85286827444977
 c302: 500 y_0_5 - 1000 y_0_4 + 500 y_0_3 <= 3.85286827444977
 c303: - 500 y_0_5 + 1000 y_0_4 - 500 y_0_3 <= 3.85286827444977
 c304: - 25 y_1_0 + 25 y_1_1 <= 0.866025403784439
 c305: 25 y_1_0 - 25 y_1_1 <= 0.866025403784439
 c306: - 25 y_1_1 + 25 y_1_2 <= 0.866025403784439
 c307: 25 y_1_1 - 25 y_1_2 <= 0.866025403784439
 c308: 25 y_1_3 - 25 y_1_2 <= 0.866025403784439
 c309: - 25 y_1_3 + 25 y_1_2 <= 0.866025403784439
 c310: 25 y_1_4 - 25 y_1_3 <= 0.866025403784439
 c311: - 25 y_1_4 + 25 y_1_3 <= 0.866025403784439
 c312: 25 y_1_5 - 25 y_1_4 <= 0.866025403784439
 c313: - 25 y_1_5 + 25 y_1_4 <= 0.866025403784439
 c314: 500 y_1_0 - 1000 y_1_1 + 500 y_1_2 <= 3.85286827444977
 c315: - 500 y_1_0 + 1000 y_1_1 - 500 y_1_2 <= 3.85286827444977
 c316: 500 y_1_3 + 500 y_1_1 - 1000 y_1_2 <= 3.85286827444977
 c317: - 500 y_1_3 - 500 y_1_1 + 1000 y_1_2 <= 3.85286827444977
 c318: 500 y_1_4 - 1000 y_1_3 + 500 y_1_2 <= 3.85286827444977
 c319: - 500 y_1_4 + 1000 y_1_3 - 500 y_1_2 <= 3.85286827444977
 c320: 500 y_1_5 - 1000 y_1_4 + 500 y_1_3 <= 3.85286827444977
 c321: - 500 y_1_5 + 1000 y_1_4 - 500 y_1_3 <= 3.85286827444977
 c322: - 25 y_2_0 + 25 y_2_1 <= 0.866025403784439
 c323: 25 y_2_0 - 25 y_2_1 <= 0.866025403784439
 c324: - 25 y_2_1 + 25 y_2_2 <= 0.866025403784439
 c325: 25 y_2_1 - 25 y_2_2 <= 0.866025403784439
 c326: 25 y_2_3 - 25 y_2_2 <= 0.866025403784439
 c327: - 25 y_2_3 + 25 y_2_2 <= 0.866025403784439
 c328: 25 y_2_4 - 25 y_2_3 <= 0.866025403784439
 c329: - 25 y_2_4 + 25 y_2_3 <= 0.866025403784439
 c330: 25 y_2_5 - 25 y_2_4 <= 0.866025403784439
 c331: - 25 y_2_5 + 25 y_2_4 <= 0.866025403784439
 c332: 500 y_2_0 - 1000 y_2_1 + 500 y_2_2 <= 3.85286827444977
 c333: - 500 y_2_0 + 1000 y_2_1 - 500 y_2_2 <= 3.85286827444977
 c334: 500 y_2_3 + 500 y_2_1 - 1000 y_2_2 <= 3.85286827444977
 c335: - 500 y_2_3 - 500 y_2_1 + 1000 y_2_2 <= 3.85286827444977
 c336: 500 y_2_4 - 1000 y_2_3 + 500 y_2_2 <= 3.85286827444977
 c337: - 500 y_2_4 + 1000 y_2_3 - 500 y_2_2 <= 3.85286827444977
 c338: 500 y_2_5 - 1000 y_2_4 + 500 y_2_3 <= 3.85286827444977
 c339: - 500 y_2_5 + 1000 y_2_4 - 500 y_2_3 <= 3.85286827444977
 c340: - 25 y_3_0 + 25 y_3_1 <= 0.866025403784439
 c341: 25 y_3_0 - 25 y_3_1 <= 0.866025403784439
 c342: - 25 y_3_1 + 25 y_3_2 <= 0.866025403784439
 c343: 25 y_3_1 - 25 y_3_2 <= 0.866025403784439
 c344: 25 y_3_3 - 25 y_3_2 <= 0.866025403784439
 c345: - 25 y_3_3 + 25 y_3_2 <= 0.866025403784439
 c346: 25 y_3_4 - 25 y_3_3 <= 0.866025403784439
 c347: - 25 y_3_4 + 25 y_3_3 <= 0.866025403784439
 c348: 25 y_3_5 - 25 y_3_4 <= 0.866025403784439
 c349: - 25 y_3_5 + 25 y_3_4 <= 0.866025403784439
 c350: 500 y_3_0 - 1000 y_3_1 + 500 y_3_2 <= 3.85286827444977
 c351: - 500 y_3_0 + 1000 y_3_1 - 500 y_3_2 <= 3.85286827444977
 c352: 500 y_3_3 + 500 y_3_1 - 1000 y_3_2 <= 3.85286827444977
 c353: - 500 y_3_3 - 500 y_3_1 + 1000 y_3_2 <= 3.85286827444977
 c354: 500 y_3_4 - 1000 y_3_3 + 500 y_3_2 <= 3.85286827444977
 c355: - 500 y_3_4 + 1000 y_3_3 - 500 y_3_2 <= 3.85286827444977
 c356: 500 y_3_5 - 1000 y_3_4 + 500 y_3_3 <= 3.85286827444977
 c357: - 500 y_3_5 + 1000 y_3_4 - 500 y_3_3 <= 3.85286827444977
 c358: - 25 y_4_0 + 25 y_4_1 <= 0.866025403784439
 c359: 25 y_4_0 - 25 y_4_1 <= 0.866025403784439
 c360: - 25 y_4_1 + 25 y_4_2 <= 0.866025403784439
 c361: 25 y_4_1 - 25 y_4_2 <= 0.866025403784439
 c362: 25 y_4_3 - 25 y_4_2 <= 0.866025403784439
 c363: - 25 y_4_3 + 25 y_4_2 <= 0.866025403784439
 c364: 25 y_4_4 - 25 y_4_3 <= 0.866025403784439
 c365: - 25 y_4_4 + 25 y_4_3 <= 0.866025403784439
 c366: 25 y_4_5 - 25 y_4_4 <= 0.866025403784439
 c367: - 25 y_4_5 + 25 y_4_4 <= 0.866025403784439
 c368: 500 y_4_0 - 1000 y_4_1 + 500 y_4_2 <= 3.85286827444977
 c369: - 500 y_4_0 + 1000 y_4_1 - 500 y_4_2 <= 3.85286827444977
 c370: 500 y_4_3 + 500 y_4_1 - 1000 y_4_2 <= 3.85286827444977
 c371: - 500 y_4_3 - 500 y_4_1 + 1000 y_4_2 <= 3.85286827444977
 c372: 500 y_4_4 - 1000 y_4_3 + 500 y_4_2 <= 3.85286827444977
 c373: - 500 y_4_4 + 1000 y_4_3 - 500 y_4_2 <= 3.85286827444977
 c374: 500 y_4_5 - 1000 y_4_4 + 500 y_4_3 <= 3.85286827444977
 c375: - 500 y_4_5 + 1000 y_4_4 - 500 y_4_3 <= 3.85286827444977
 c376: 25 z_0_3 - 25 z_0_2 <= 0.866025403784439
 c377: - 25 z_0_3 + 25 z_0_2 <= 0.866025403784439
 c378: 25 z_0_4 - 25 z_0_3 <= 0.866025403784439
 c379: - 25 z_0_4 + 25 z_0_3 <= 0.866025403784439
 c380: 25 z_0_5 - 25 z_0_4 <= 0.866025403784439
 c381: - 25 z_0_5 + 25 z_0_4 <= 0.866025403784439
 c382: 500 z_0_3 + 500 z_0_1 - 1000 z_0_2 <= 3.85286827444977
 c383: 500 z_0_3 + 500 z_0_1 - 1000 z_0_2 >= -6.86
 c384: 500 z_0_4 - 1000 z_0_3 + 500 z_0_2 <= 3.85286827444977
 c385: 500 z_0_4 - 1000 z_0_3 + 500 z_0_2 >= -6.86
 c386: 500 z_0_5 - 1000 z_0_4 + 500 z_0_3 <= 3.85286827444977
 c387: 500 z_0_5 - 1000 z_0_4 + 500 z_0_3 >= -6.86
 c388: - 25 z_1_0 + 25 z_1_1 <= 0.866025403784439
 c389: 25 z_1_0 - 25 z_1_1 <= 0.866025403784439
 c390: - 25 z_1_1 + 25 z_1_2 <= 0.866025403784439
 c391: 25 z_1_1 - 25 z_1_2 <= 0.866025403784439
 c392: 25 z_1_3 - 25 z_1_2 <= 0.866025403784439
 c393: - 25 z_1_3 + 25 z_1_2 <= 0.866025403784439
 c394: 25 z_1_4 - 25 z_1_3 <= 0.866025403784439
 c395: - 25 z_1_4 + 25 z_1_3 <= 0.866025403784439
 c396: 25 z_1_5 - 25 z_1_4 <= 0.866025403784439
 c397: - 25 z_1_5 + 25 z_1_4 <= 0.866025403784439
 c398: 500 z_1_0 - 1000 z_1_1 + 500 z_1_2 <= 3.85286827444977
 c399: 500 z_1_0 - 1000 z_1_1 + 500 z_1_2 >= -6.86
 c400: 500 z_1_3 + 500 z_1_1 - 1000 z_1_2 <= 3.85286827444977
 c401: 500 z_1_3 + 500 z_1_1 - 1000 z_1_2 >= -6.86
 c402: 500 z_1_4 - 1000 z_1_3 + 500 z_1_2 <= 3.85286827444977
 c403: 500 z_1_4 - 1000 z_1_3 + 500 z_1_2 >= -6.86
 c404: 500 z_1_5 - 1000 z_1_4 + 500 z_1_3 <= 3.85286827444977
 c405: 500 z_1_5 - 1000 z_1_4 + 500 z_1_3 >= -6.86
 c406: - 25 z_2_0 + 25 z_2_1 <= 0.866025403784439
 c407: 25 z_2_0 - 25 z_2_1 <= 0.866025403784439
 c408: - 25 z_2_1 + 25 z_2_2 <= 0.866025403784439
 c409: 25 z_2_1 - 25 z_2_2 <= 0.866025403784439
 c410: 25 z_2_3 - 25 z_2_2 <= 0.866025403784439
 c411: - 25 z_2_3 + 25 z_2_2 <= 0.866025403784439
 c412: 25 z_2_4 - 25 z_2_3 <= 0.866025403784439
 c413: - 25 z_2_4 + 25 z_2_3 <= 0.866025403784439
 c414: 25 z_2_5 - 25 z_2_4 <= 0.866025403784439
 c415: - 25 z_2_5 + 25 z_2_4 <= 0.866025403784439
 c416: 500 z_2_0 - 1000 z_2_1 + 500 z_2_2 <= 3.85286827444977
 c417: 500 z_2_0 - 1000 z_2_1 + 500 z_2_2 >= -6.86
 c418: 500 z_2_3 + 500 z_2_1 - 1000 z_2_2 <= 3.85286827444977
 c419: 500 z_2_3 + 500 z_2_1 - 1000 z_2_2 >= -6.86
 c420: 500 z_2_4 - 1000 z_2_3 + 500 z_2_2 <= 3.85286827444977
 c421: 500 z_2_4 - 1000 z_2_3 + 500 z_2_2 >= -6.86
 c422: 500 z_2_5 - 1000 z_2_4 + 500 z_2_3 <= 3.85286827444977
 c423: 500 z_2_5 - 1000 z_2_4 + 500 z_2_3 >= -6.86
 c424: - 25 z_3_0 + 25 z_3_1 <= 0.866025403784439
 c425: 25 z_3_0 - 25 z_3_1 <= 0.866025403784439
 c426: - 25 z_3_1 + 25 z_3_2 <= 0.866025403784439
 c427: 25 z_3_1 - 25 z_3_2 <= 0.866025403784439
 c428: 25 z_3_3 - 25 z_3_2 <= 0.866025403784439
 c429: - 25 z_3_3 + 25 z_3_2 <= 0.866025403784439
 c430: 25 z_3_4 - 25 z_3_3 <= 0.866025403784439
 c431: - 25 z_3_4 + 25 z_3_3 <= 0.866025403784439
 c432: 25 z_3_5 - 25 z_3_4 <= 0.866025403784439
 c433: - 25 z_3_5 + 25 z_3_4 <= 0.866025403784439
 c434: 500 z_3_0 - 1000 z_3_1 + 500 z_3_2 <= 3.85286827444977
 c435: 500 z_3_0 - 1000 z_3_1 + 500 z_3_2 >= -6.86
 c436: 500 z_3_3 + 500 z_3_1 - 1000 z_3_2 <= 3.85286827444977
 c437: 500 z_3_3 + 500 z_3_1 - 1000 z_3_2 >= -6.86
 c438: 500 z_3_4 - 1000 z_3_3 + 500 z_3_2 <= 3.85286827444977
 c439: 500 z_3_4 - 1000 z_3_3 + 500 z_3_2 >= -6.86
 c440: 500 z_3_5 - 1000 z_3_4 + 500 z_3_3 <= 3.85286827444977
 c441: 500 z_3_5 - 1000 z_3_4 + 500 z_3_3 >= -6.86
 c442: - 25 z_4_0 + 25 z_4_1 <= 0.866025403784439
 c443: 25 z_4_0 - 25 z_4_1 <= 0.866025403784439
 c444: - 25 z_4_1 + 25 z_4_2 <= 0.866025403784439
 c445: 25 z_4_1 - 25 z_4_2 <= 0.866025403784439
 c446: 25 z_4_3 - 25 z_4_2 <= 0.866025403784439
 c447: - 25 z_4_3 + 25 z_4_2 <= 0.866025403784439
 c448: 25 z_4_4 - 25 z_4_3 <= 0.866025403784439
 c449: - 25 z_4_4 + 25 z_4_3 <= 0.866025403784439
 c450: 25 z_4_5 - 25 z_4_4 <= 0.866025403784439
 c451: - 25 z_4_5 + 25 z_4_4 <= 0.866025403784439
 c452: 500 z_4_0 - 1000 z_4_1 + 500 z_4_2 <= 3.85286827444977
 c453: 500 z_4_0 - 1000 z_4_1 + 500 z_4_2 >= -6.86
 c454: 500 z_4_3 + 500 z_4_1 - 1000 z_4_2 <= 3.85286827444977
 c455: 500 z_4_3 + 500 z_4_1 - 1000 z_4_2 >= -6.86
 c456: 500 z_4_4 - 1000 z_4_3 + 500 z_4_2 <= 3.85286827444977
 c457: 500 z_4_4 - 1000 z_4_3 + 500 z_4_2 >= -6.86
 c458: 500 z_4_5 - 1000 z_4_4 + 500 z_4_3 <= 3.85286827444977
 c459: 500 z_4_5 - 1000 z_4_4 + 500 z_4_3 >= -6.86
 c460: x_4_5 - x_4_4  = 0
 c461: x_4_5 - x_4_3  = 0
 c462: y_4_5 - y_4_4  = 0
 c463: y_4_5 - y_4_3  = 0
 c464: z_4_5 - z_4_4  = 0
 c465: z_4_5 - z_4_3  = 0
Bounds
 0.400000005960464 <= z_4_5 <= 1.89999997615814
 0.400000005960464 <= z_4_4 <= 1.89999997615814
 0.400000005960464 <= z_4_3 <= 1.89999997615814
 0.400000005960464 <= z_4_0 <= 1.89999997615814
 0.400000005960464 <= z_4_1 <= 1.89999997615814
 0.400000005960464 <= z_4_2 <= 1.89999997615814
 0.400000005960464 <= z_3_5 <= 1.89999997615814
 0.400000005960464 <= z_3_4 <= 1.89999997615814
 0.400000005960464 <= z_3_3 <= 1.89999997615814
 0.400000005960464 <= z_3_0 <= 1.89999997615814
 0.400000005960464 <= z_3_1 <= 1.89999997615814
 0.400000005960464 <= z_3_2 <= 1.89999997615814
 0.400000005960464 <= z_2_5 <= 1.89999997615814
 0.400000005960464 <= z_2_4 <= 1.89999997615814
 0.400000005960464 <= z_2_3 <= 1.89999997615814
 0.400000005960464 <= z_2_0 <= 1.89999997615814
 0.400000005960464 <= z_2_1 <= 1.89999997615814
 0.400000005960464 <= z_2_2 <= 1.89999997615814
 0.400000005960464 <= z_1_5 <= 1.89999997615814
 0.400000005960464 <= z_1_4 <= 1.89999997615814
 0.400000005960464 <= z_1_3 <= 1.89999997615814
 0.400000005960464 <= z_1_0 <= 1.89999997615814
 0.400000005960464 <= z_1_1 <= 1.89999997615814
 0.400000005960464 <= z_1_2 <= 1.89999997615814
 0.400000005960464 <= z_0_5 <= 1.89999997615814
 0.400000005960464 <= z_0_4 <= 1.89999997615814
 0.400000005960464 <= z_0_3 <= 1.89999997615814
      z_0_0 Free
      z_0_1 Free
      z_0_2 Free
-2.90000009536743 <= y_4_5 <= 2.90000009536743
-2.90000009536743 <= y_4_4 <= 2.90000009536743
-2.90000009536743 <= y_4_3 <= 2.90000009536743
-2.90000009536743 <= y_4_0 <= 2.90000009536743
-2.90000009536743 <= y_4_1 <= 2.90000009536743
-2.90000009536743 <= y_4_2 <= 2.90000009536743
-2.90000009536743 <= y_3_5 <= 2.90000009536743
-2.90000009536743 <= y_3_4 <= 2.90000009536743
-2.90000009536743 <= y_3_3 <= 2.90000009536743
-2.90000009536743 <= y_3_0 <= 2.90000009536743
-2.90000009536743 <= y_3_1 <= 2.90000009536743
-2.90000009536743 <= y_3_2 <= 2.90000009536743
-2.90000009536743 <= y_2_5 <= 2.90000009536743
-2.90000009536743 <= y_2_4 <= 2.90000009536743
-2.90000009536743 <= y_2_3 <= 2.90000009536743
-2.90000009536743 <= y_2_0 <= 2.90000009536743
-2.90000009536743 <= y_2_1 <= 2.90000009536743
-2.90000009536743 <= y_2_2 <= 2.90000009536743
-2.90000009536743 <= y_1_5 <= 2.90000009536743
-2.90000009536743 <= y_1_4 <= 2.90000009536743
-2.90000009536743 <= y_1_3 <= 2.90000009536743
-2.90000009536743 <= y_1_0 <= 2.90000009536743
-2.90000009536743 <= y_1_1 <= 2.90000009536743
-2.90000009536743 <= y_1_2 <= 2.90000009536743
-2.90000009536743 <= y_0_5 <= 2.90000009536743
-2.90000009536743 <= y_0_4 <= 2.90000009536743
-2.90000009536743 <= y_0_3 <= 2.90000009536743
      y_0_0 Free
      y_0_1 Free
      y_0_2 Free
-2.90000009536743 <= x_4_5 <= 2.90000009536743
-2.90000009536743 <= x_4_4 <= 2.90000009536743
-2.90000009536743 <= x_4_3 <= 2.90000009536743
-2.90000009536743 <= x_4_0 <= 2.90000009536743
-2.90000009536743 <= x_4_1 <= 2.90000009536743
-2.90000009536743 <= x_4_2 <= 2.90000009536743
-2.90000009536743 <= x_3_5 <= 2.90000009536743
-2.90000009536743 <= x_3_4 <= 2.90000009536743
-2.90000009536743 <= x_3_3 <= 2.90000009536743
-2.90000009536743 <= x_3_0 <= 2.90000009536743
-2.90000009536743 <= x_3_1 <= 2.90000009536743
-2.90000009536743 <= x_3_2 <= 2.90000009536743
-2.90000009536743 <= x_2_5 <= 2.90000009536743
-2.90000009536743 <= x_2_4 <= 2.90000009536743
-2.90000009536743 <= x_2_3 <= 2.90000009536743
-2.90000009536743 <= x_2_0 <= 2.90000009536743
-2.90000009536743 <= x_2_1 <= 2.90000009536743
-2.90000009536743 <= x_2_2 <= 2.90000009536743
-2.90000009536743 <= x_1_5 <= 2.90000009536743
-2.90000009536743 <= x_1_4 <= 2.90000009536743
-2.90000009536743 <= x_1_3 <= 2.90000009536743
-2.90000009536743 <= x_1_0 <= 2.90000009536743
-2.90000009536743 <= x_1_1 <= 2.90000009536743
-2.90000009536743 <= x_1_2 <= 2.90000009536743
-2.90000009536743 <= x_0_5 <= 2.90000009536743
-2.90000009536743 <= x_0_4 <= 2.90000009536743
-2.90000009536743 <= x_0_3 <= 2.90000009536743
      x_0_0 Free
      x_0_1 Free
      x_0_2 Free
End
